2-dimensional/CL_08_25_09.vbp
2
150 150 
25
32 82 30
74 39 72
67 48 4
30 80 88
87 32 54
69 49 64
74 43 90
66 50 26
36 76 94
82 32 28
89 25 72
47 70 49
55 57 54
77 35 19
24 88 28
73 38 61
29 82 84
44 73 23
55 55 67
27 83 53
30 83 54
82 37 16
68 42 9
60 50 54
74 36 77
