datasets/2-dimensional/CL_08_25_09.txt
150 150 
0 30 32 82 
1 72 74 39 
2 4 67 48 
3 88 30 80 
4 54 87 32 
5 64 69 49 
6 90 74 43 
7 26 66 50 
8 94 36 76 
9 28 82 32 
10 72 89 25 
11 49 47 70 
12 54 55 57 
13 19 77 35 
14 28 24 88 
15 61 73 38 
16 84 29 82 
17 23 44 73 
18 67 55 55 
19 53 27 83 
20 54 30 83 
21 16 82 37 
22 9 68 42 
23 54 60 50 
24 77 74 36 
